; SPDX-License-Identifier: MPL-2.0
; Copyright (c) 2026 The RIINA Authors.
; Auto-generated from 02_FORMAL/coq/domains/OperationalSecurity.v (25 validations)
; Generated by scripts/generate-full-stack.py
;
; Translation Validation for OperationalSecurity
; Layer 9: Verifies compiler backend preserves formal semantics.
; Each assertion checks source IR ≡ target code for a proven property.

(set-logic QF_LIA)
(set-option :produce-models true)

; IR node representation
(declare-sort IRNode 0)
(declare-sort TargetNode 0)

; budget_ok: source semantics (matches Coq)
(declare-fun source_budget_ok () Bool)
(declare-fun target_budget_ok () Bool)
(assert (= source_budget_ok target_budget_ok))

; is_duress: source semantics (matches Coq)
(declare-fun source_is_duress () Bool)
(declare-fun target_is_duress () Bool)
(assert (= source_is_duress target_is_duress))

; dead_man_triggered: source semantics (matches Coq)
(declare-fun source_dead_man_triggered () Bool)
(declare-fun target_dead_man_triggered () Bool)
(assert (= source_dead_man_triggered target_dead_man_triggered))

; within_time_window: source semantics (matches Coq)
(declare-fun source_within_time_window () Bool)
(declare-fun target_within_time_window () Bool)
(assert (= source_within_time_window target_within_time_window))

; roles_distinct: source semantics (matches Coq)
(declare-fun source_roles_distinct () Bool)
(declare-fun target_roles_distinct () Bool)
(assert (= source_roles_distinct target_roles_distinct))

; anomaly_detected: source semantics (matches Coq)
(declare-fun source_anomaly_detected () Bool)
(declare-fun target_anomaly_detected () Bool)
(assert (= source_anomaly_detected target_anomaly_detected))

; action_audited: source semantics (matches Coq)
(declare-fun source_action_audited () Bool)
(declare-fun target_action_audited () Bool)
(assert (= source_action_audited target_action_audited))

; platforms_independent: source semantics (matches Coq)
(declare-fun source_platforms_independent () Bool)
(declare-fun target_platforms_independent () Bool)
(assert (= source_platforms_independent target_platforms_independent))

; majority_agrees: source semantics (matches Coq)
(declare-fun source_majority_agrees () Bool)
(declare-fun target_majority_agrees () Bool)
(assert (= source_majority_agrees target_majority_agrees))

; time_lock_expired: source semantics (matches Coq)
(declare-fun source_time_lock_expired () Bool)
(declare-fun target_time_lock_expired () Bool)
(assert (= source_time_lock_expired target_time_lock_expired))

; in_cancellation_window: source semantics (matches Coq)
(declare-fun source_in_cancellation_window () Bool)
(declare-fun target_in_cancellation_window () Bool)
(assert (= source_in_cancellation_window target_in_cancellation_window))

; principals_unique: source semantics (matches Coq)
(declare-fun source_principals_unique () Bool)
(declare-fun target_principals_unique () Bool)
(assert (= source_principals_unique target_principals_unique))

; channels_diverse: source semantics (matches Coq)
(declare-fun source_channels_diverse () Bool)
(declare-fun target_channels_diverse () Bool)
(assert (= source_channels_diverse target_channels_diverse))

; jurisdictions_spread: source semantics (matches Coq)
(declare-fun source_jurisdictions_spread () Bool)
(declare-fun target_jurisdictions_spread () Bool)
(assert (= source_jurisdictions_spread target_jurisdictions_spread))

; all_signatures_valid: source semantics (matches Coq)
(declare-fun source_all_signatures_valid () Bool)
(declare-fun target_all_signatures_valid () Bool)
(assert (= source_all_signatures_valid target_all_signatures_valid))

; reset_budget: source semantics (matches Coq)
(declare-fun source_reset_budget () Bool)
(declare-fun target_reset_budget () Bool)
(assert (= source_reset_budget target_reset_budget))

; layers_active: source semantics (matches Coq)
(declare-fun source_layers_active () Bool)
(declare-fun target_layers_active () Bool)
(assert (= source_layers_active target_layers_active))

; opsec_001_shamir_security: translation preserves property (matches Coq: Theorem)
(declare-fun source_opsec_001_shamir_security () Bool)
(declare-fun target_opsec_001_shamir_security () Bool)
(assert (= source_opsec_001_shamir_security target_opsec_001_shamir_security))

; opsec_002_shamir_reconstruction: translation preserves property (matches Coq: Theorem)
(declare-fun source_opsec_002_shamir_reconstruction () Bool)
(declare-fun target_opsec_002_shamir_reconstruction () Bool)
(assert (= source_opsec_002_shamir_reconstruction target_opsec_002_shamir_reconstruction))

; opsec_003_no_single_keyholder: translation preserves property (matches Coq: Theorem)
(declare-fun source_opsec_003_no_single_keyholder () Bool)
(declare-fun target_opsec_003_no_single_keyholder () Bool)
(assert (= source_opsec_003_no_single_keyholder target_opsec_003_no_single_keyholder))

; opsec_004_geographic_distribution: translation preserves property (matches Coq: Theorem)
(declare-fun source_opsec_004_geographic_distribution () Bool)
(declare-fun target_opsec_004_geographic_distribution () Bool)
(assert (= source_opsec_004_geographic_distribution target_opsec_004_geographic_distribution))

; opsec_005_multiparty_required: translation preserves property (matches Coq: Theorem)
(declare-fun source_opsec_005_multiparty_required () Bool)
(declare-fun target_opsec_005_multiparty_required () Bool)
(assert (= source_opsec_005_multiparty_required target_opsec_005_multiparty_required))

; opsec_006_social_engineering_insufficient: translation preserves property (matches Coq: Theorem)
(declare-fun source_opsec_006_social_engineering_insufficient () Bool)
(declare-fun target_opsec_006_social_engineering_insufficient () Bool)
(assert (= source_opsec_006_social_engineering_insufficient target_opsec_006_social_engineering_insufficient))

; opsec_007_insider_bounded: translation preserves property (matches Coq: Theorem)
(declare-fun source_opsec_007_insider_bounded () Bool)
(declare-fun target_opsec_007_insider_bounded () Bool)
(assert (= source_opsec_007_insider_bounded target_opsec_007_insider_bounded))

; opsec_008_export_limit: translation preserves property (matches Coq: Theorem)
(declare-fun source_opsec_008_export_limit () Bool)
(declare-fun target_opsec_008_export_limit () Bool)
(assert (= source_opsec_008_export_limit target_opsec_008_export_limit))

; opsec_009_duress_detection: translation preserves property (matches Coq: Theorem)
(declare-fun source_opsec_009_duress_detection () Bool)
(declare-fun target_opsec_009_duress_detection () Bool)
(assert (= source_opsec_009_duress_detection target_opsec_009_duress_detection))

; opsec_010_dead_man_switch: translation preserves property (matches Coq: Theorem)
(declare-fun source_opsec_010_dead_man_switch () Bool)
(declare-fun target_opsec_010_dead_man_switch () Bool)
(assert (= source_opsec_010_dead_man_switch target_opsec_010_dead_man_switch))

; opsec_011_time_window: translation preserves property (matches Coq: Theorem)
(declare-fun source_opsec_011_time_window () Bool)
(declare-fun target_opsec_011_time_window () Bool)
(assert (= source_opsec_011_time_window target_opsec_011_time_window))

; opsec_012_role_separation: translation preserves property (matches Coq: Theorem)
(declare-fun source_opsec_012_role_separation () Bool)
(declare-fun target_opsec_012_role_separation () Bool)
(assert (= source_opsec_012_role_separation target_opsec_012_role_separation))

; opsec_013_anomaly_detection: translation preserves property (matches Coq: Theorem)
(declare-fun source_opsec_013_anomaly_detection () Bool)
(declare-fun target_opsec_013_anomaly_detection () Bool)
(assert (= source_opsec_013_anomaly_detection target_opsec_013_anomaly_detection))

; opsec_014_audit_complete: translation preserves property (matches Coq: Theorem)
(declare-fun source_opsec_014_audit_complete () Bool)
(declare-fun target_opsec_014_audit_complete () Bool)
(assert (= source_opsec_014_audit_complete target_opsec_014_audit_complete))

; opsec_015_hardware_diversity: translation preserves property (matches Coq: Theorem)
(declare-fun source_opsec_015_hardware_diversity () Bool)
(declare-fun target_opsec_015_hardware_diversity () Bool)
(assert (= source_opsec_015_hardware_diversity target_opsec_015_hardware_diversity))

; opsec_016_nversion_consensus: translation preserves property (matches Coq: Theorem)
(declare-fun source_opsec_016_nversion_consensus () Bool)
(declare-fun target_opsec_016_nversion_consensus () Bool)
(assert (= source_opsec_016_nversion_consensus target_opsec_016_nversion_consensus))

; opsec_017_time_lock: translation preserves property (matches Coq: Theorem)
(declare-fun source_opsec_017_time_lock () Bool)
(declare-fun target_opsec_017_time_lock () Bool)
(assert (= source_opsec_017_time_lock target_opsec_017_time_lock))

; opsec_018_cancellation_window: translation preserves property (matches Coq: Theorem)
(declare-fun source_opsec_018_cancellation_window () Bool)
(declare-fun target_opsec_018_cancellation_window () Bool)
(assert (= source_opsec_018_cancellation_window target_opsec_018_cancellation_window))

; opsec_019_principal_uniqueness: translation preserves property (matches Coq: Theorem)
(declare-fun source_opsec_019_principal_uniqueness () Bool)
(declare-fun target_opsec_019_principal_uniqueness () Bool)
(assert (= source_opsec_019_principal_uniqueness target_opsec_019_principal_uniqueness))

; opsec_020_channel_diversity: translation preserves property (matches Coq: Theorem)
(declare-fun source_opsec_020_channel_diversity () Bool)
(declare-fun target_opsec_020_channel_diversity () Bool)
(assert (= source_opsec_020_channel_diversity target_opsec_020_channel_diversity))

; opsec_021_coercion_resistant: translation preserves property (matches Coq: Theorem)
(declare-fun source_opsec_021_coercion_resistant () Bool)
(declare-fun target_opsec_021_coercion_resistant () Bool)
(assert (= source_opsec_021_coercion_resistant target_opsec_021_coercion_resistant))

; opsec_022_jurisdictional_spread: translation preserves property (matches Coq: Theorem)
(declare-fun source_opsec_022_jurisdictional_spread () Bool)
(declare-fun target_opsec_022_jurisdictional_spread () Bool)
(assert (= source_opsec_022_jurisdictional_spread target_opsec_022_jurisdictional_spread))

; opsec_023_signatures_valid: translation preserves property (matches Coq: Theorem)
(declare-fun source_opsec_023_signatures_valid () Bool)
(declare-fun target_opsec_023_signatures_valid () Bool)
(assert (= source_opsec_023_signatures_valid target_opsec_023_signatures_valid))

; opsec_024_budget_reset: translation preserves property (matches Coq: Theorem)
(declare-fun source_opsec_024_budget_reset () Bool)
(declare-fun target_opsec_024_budget_reset () Bool)
(assert (= source_opsec_024_budget_reset target_opsec_024_budget_reset))

; opsec_025_defense_in_depth: translation preserves property (matches Coq: Theorem)
(declare-fun source_opsec_025_defense_in_depth () Bool)
(declare-fun target_opsec_025_defense_in_depth () Bool)
(assert (= source_opsec_025_defense_in_depth target_opsec_025_defense_in_depth))

; Verify all translation validations are satisfiable
(check-sat)
(exit)
